Running HiGHS 1.4.2 [date: 1970-01-01, git hash: f797c1ab6]
Copyright (c) 2022 ERGO-Code under MIT licence terms
Number of PL entries in BOUNDS section is 4
Number of BV entries in BOUNDS section is 16801
MIP  mp_h4_od_d0.85_E9DEp_0 has 29028 rows; 16815 cols; 109599 nonzeros; 16810 integer variables

Presolve is switched off

Solving MIP model with:
   29028 rows
   16815 cols (16801 binary, 9 integer, 0 implied int., 5 continuous)
   109599 nonzeros

        Nodes      |    B&B Tree     |            Objective Bounds              |  Dynamic Constraints |       Work      
     Proc. InQueue |  Leaves   Expl. | BestBound       BestSol              Gap |   Cuts   InLp Confl. | LpIters     Time

         0       0         0   0.00%   -inf            inf                  inf        0      0      0         0     0.1s
         0       0         0   0.00%   -224.590945     inf                  inf        0      0      1      4138     0.8s
 R       0       0         0   0.00%   -220.7563666    -174.0655005      26.82%     1607     61      8      6147     2.9s
 C       0       0         0   0.00%   -220.7563666    -176.1514965      25.32%     1607     61      8      6147     4.2s
         0       0         0   0.00%   -219.5957121    -176.1514965      24.66%     3189    178      8     13398     9.4s
         0       0         0   0.00%   -219.3513052    -176.1514965      24.52%     2046    229      8     17870    14.4s
 L       0       0         0   0.00%   -219.172101     -218.8436615       0.15%     1446    246      8     20028    21.9s
